32      4       
17      12      11      12      
0       0       0       0       0       7       2       3       4       5       6       7       13      
10      3       5       0       0       5       15      12      10      9       8       
4       0       0       1       1       5       15      14      11      10      9       
9       9       4       0       0       3       14      10      9       
9       1       0       1       0       4       18      17      16      10      
9       5       6       0       0       3       21      10      9       
4       7       0       0       1       2       10      9       
8       0       0       1       1       5       30      24      22      20      14      
2       1       0       4       0       4       29      19      17      16      
2       0       1       0       4       7       30      28      26      24      22      20      19      
6       13      0       1       0       6       31      30      29      24      19      18      
5       4       0       3       0       4       31      26      20      17      
1       1       0       4       0       4       24      22      20      16      
8       0       0       1       1       5       31      29      28      19      18      
9       0       0       5       2       5       30      28      27      22      21      
10      1       2       0       0       5       31      28      27      26      23      
5       0       1       0       2       4       30      28      24      22      
4       0       1       0       1       3       27      23      21      
9       0       1       1       0       2       27      23      
2       1       0       0       9       2       29      23      
3       0       6       0       8       2       26      25      
7       6       1       0       0       1       23      
5       0       3       4       0       1       25      
10      3       0       0       4       1       25      
4       0       0       4       1       1       32      
4       0       1       0       1       1       32      
6       2       0       7       0       1       32      
3       7       2       0       0       1       32      
7       0       0       3       3       1       32      
5       0       6       1       0       1       32      
8       0       5       0       6       1       32      
0       0       0       0       0       0       
